40
    30     3    97    91    68    17    70    40    71    46    68    65    29    38    83    31    61   100    86     6    14    85    24    60    61     6    24    68     7    24    91     5    82    56     6    54    45    71    31    96
     1     7     1     5     9     7     1     7     2     6    10     4     3    10     1     7     2    10     9     6    10     5     6     3     4     7     4     2     1     7     1     5     5     9     7     8     1     5     5     5
  1068  1151  1235     0     0    14     0   283     0     0  1263   269   229     0     0    23   907    79     0     0   191   683   698  1288   278   486     0   538   822     0   958     0     0     0    82     0  1142     0   359    34
